p cnf 59 13
-13 20 2 36 -3 0
-33 2 5 -15 -44 0
53 24 16 -45 -43 0
-54 -13 58 -59 -2 0
23 2 -1 -58 34 0
-23 -5 39 -37 3 0
-15 -23 26 -3 -38 0
-8 22 2 -14 -47 0
2 56 52 36 -21 0
-31 -58 12 -3 -11 0
-7 -13 17 22 1 0
-33 40 -5 17 -3 0
43 4 -1 7 5 0
